p cnf 967 2484
51 -2 -700 0
-51 2 0
-51 700 0
52 -51 -3 0
-52 51 0
-52 3 0
53 -5 -701 0
-53 5 0
-53 701 0
54 -53 -6 0
-54 53 0
-54 6 0
55 -702 -703 0
-55 702 0
-55 703 0
56 -8 -7 0
-56 8 0
-56 7 0
57 -56 -704 0
-57 56 0
-57 704 0
58 -705 -55 0
-58 705 0
-58 55 0
59 -706 -10 0
-59 706 0
-59 10 0
60 -59 -707 0
-60 59 0
-60 707 0
61 -708 -58 0
-61 708 0
-61 58 0
62 -14 -709 0
-62 14 0
-62 709 0
63 -62 -15 0
-63 62 0
-63 15 0
64 -710 -61 0
-64 710 0
-64 61 0
65 -16 -701 0
-65 16 0
-65 701 0
66 -65 -711 0
-66 65 0
-66 711 0
67 -712 -64 0
-67 712 0
-67 64 0
68 -19 -713 0
-68 19 0
-68 713 0
69 -68 -20 0
-69 68 0
-69 20 0
70 -714 -67 0
-70 714 0
-70 67 0
71 -715 -716 0
-71 715 0
-71 716 0
72 -71 -717 0
-72 71 0
-72 717 0
73 -718 -70 0
-73 718 0
-73 70 0
74 -719 -23 0
-74 719 0
-74 23 0
75 -74 -720 0
-75 74 0
-75 720 0
76 -721 -73 0
-76 721 0
-76 73 0
77 -722 -12 0
-77 722 0
-77 12 0
78 -77 -27 0
-78 77 0
-78 27 0
79 -723 -76 0
-79 723 0
-79 76 0
80 -28 -16 0
-80 28 0
-80 16 0
81 -80 -24 0
-81 80 0
-81 24 0
82 -724 -79 0
-82 724 0
-82 79 0
83 -29 -2 0
-83 29 0
-83 2 0
84 -83 -27 0
-84 83 0
-84 27 0
85 -725 -82 0
-85 725 0
-85 82 0
86 -28 -7 0
-86 28 0
-86 7 0
87 -86 -4 0
-87 86 0
-87 4 0
88 -726 -85 0
-88 726 0
-88 85 0
89 -717 -3 0
-89 717 0
-89 3 0
90 -89 -727 0
-90 89 0
-90 727 0
91 -728 -88 0
-91 728 0
-91 88 0
92 -30 -722 0
-92 30 0
-92 722 0
93 -92 -31 0
-93 92 0
-93 31 0
94 -729 -91 0
-94 729 0
-94 91 0
95 -32 -23 0
-95 32 0
-95 23 0
96 -95 -730 0
-96 95 0
-96 730 0
97 -731 -94 0
-97 731 0
-97 94 0
98 -732 -733 0
-98 732 0
-98 733 0
99 -98 -734 0
-99 98 0
-99 734 0
100 -735 -97 0
-100 735 0
-100 97 0
101 -35 -700 0
-101 35 0
-101 700 0
102 -101 -701 0
-102 101 0
-102 701 0
103 -736 -100 0
-103 736 0
-103 100 0
104 -36 -1 0
-104 36 0
-104 1 0
105 -104 -737 0
-105 104 0
-105 737 0
106 -738 -103 0
-106 738 0
-106 103 0
107 -29 -739 0
-107 29 0
-107 739 0
108 -107 -740 0
-108 107 0
-108 740 0
109 -741 -106 0
-109 741 0
-109 106 0
110 -742 -18 0
-110 742 0
-110 18 0
111 -110 -38 0
-111 110 0
-111 38 0
112 -743 -109 0
-112 743 0
-112 109 0
113 -39 -33 0
-113 39 0
-113 33 0
114 -113 -744 0
-114 113 0
-114 744 0
115 -745 -112 0
-115 745 0
-115 112 0
116 -746 -37 0
-116 746 0
-116 37 0
117 -116 -5 0
-117 116 0
-117 5 0
118 -747 -115 0
-118 747 0
-118 115 0
119 -732 -700 0
-119 732 0
-119 700 0
120 -119 -41 0
-120 119 0
-120 41 0
121 -748 -118 0
-121 748 0
-121 118 0
122 -722 -749 0
-122 722 0
-122 749 0
123 -122 -711 0
-123 122 0
-123 711 0
124 -750 -121 0
-124 750 0
-124 121 0
125 -42 -27 0
-125 42 0
-125 27 0
126 -125 -9 0
-126 125 0
-126 9 0
127 -751 -124 0
-127 751 0
-127 124 0
128 -40 -12 0
-128 40 0
-128 12 0
129 -128 -38 0
-129 128 0
-129 38 0
130 -752 -127 0
-130 752 0
-130 127 0
131 -753 -13 0
-131 753 0
-131 13 0
132 -131 -711 0
-132 131 0
-132 711 0
133 -754 -130 0
-133 754 0
-133 130 0
134 -753 -23 0
-134 753 0
-134 23 0
135 -134 -43 0
-135 134 0
-135 43 0
136 -755 -133 0
-136 755 0
-136 133 0
137 -36 -16 0
-137 36 0
-137 16 0
138 -137 -756 0
-138 137 0
-138 756 0
139 -757 -136 0
-139 757 0
-139 136 0
140 -758 -759 0
-140 758 0
-140 759 0
141 -140 -41 0
-141 140 0
-141 41 0
142 -760 -139 0
-142 760 0
-142 139 0
143 -25 -740 0
-143 25 0
-143 740 0
144 -143 -761 0
-144 143 0
-144 761 0
145 -762 -142 0
-145 762 0
-145 142 0
146 -763 -709 0
-146 763 0
-146 709 0
147 -146 -711 0
-147 146 0
-147 711 0
148 -764 -145 0
-148 764 0
-148 145 0
149 -16 -14 0
-149 16 0
-149 14 0
150 -149 -717 0
-150 149 0
-150 717 0
151 -765 -148 0
-151 765 0
-151 148 0
152 -23 -740 0
-152 23 0
-152 740 0
153 -152 -713 0
-153 152 0
-153 713 0
154 -766 -151 0
-154 766 0
-154 151 0
155 -11 -740 0
-155 11 0
-155 740 0
156 -155 -38 0
-156 155 0
-156 38 0
157 -767 -154 0
-157 767 0
-157 154 0
158 -742 -2 0
-158 742 0
-158 2 0
159 -158 -768 0
-159 158 0
-159 768 0
160 -769 -157 0
-160 769 0
-160 157 0
161 -35 -763 0
-161 35 0
-161 763 0
162 -161 -4 0
-162 161 0
-162 4 0
163 -770 -160 0
-163 770 0
-163 160 0
164 -28 -2 0
-164 28 0
-164 2 0
165 -164 -715 0
-165 164 0
-165 715 0
166 -771 -163 0
-166 771 0
-166 163 0
167 -772 -737 0
-167 772 0
-167 737 0
168 -167 -773 0
-168 167 0
-168 773 0
169 -774 -166 0
-169 774 0
-169 166 0
170 -773 -30 0
-170 773 0
-170 30 0
171 -170 -6 0
-171 170 0
-171 6 0
172 -775 -169 0
-172 775 0
-172 169 0
173 -15 -709 0
-173 15 0
-173 709 0
174 -173 -3 0
-174 173 0
-174 3 0
175 -776 -172 0
-175 776 0
-175 172 0
176 -777 -746 0
-176 777 0
-176 746 0
177 -176 -37 0
-177 176 0
-177 37 0
178 -778 -175 0
-178 778 0
-178 175 0
179 -19 -7 0
-179 19 0
-179 7 0
180 -179 -707 0
-180 179 0
-180 707 0
181 -779 -178 0
-181 779 0
-181 178 0
182 -780 -781 0
-182 780 0
-182 781 0
183 -182 -727 0
-183 182 0
-183 727 0
184 -782 -181 0
-184 782 0
-184 181 0
185 -30 -24 0
-185 30 0
-185 24 0
186 -185 -761 0
-186 185 0
-186 761 0
187 -783 -184 0
-187 783 0
-187 184 0
188 -717 -13 0
-188 717 0
-188 13 0
189 -188 -8 0
-189 188 0
-189 8 0
190 -784 -187 0
-190 784 0
-190 187 0
191 -33 -12 0
-191 33 0
-191 12 0
192 -191 -785 0
-192 191 0
-192 785 0
193 -786 -190 0
-193 786 0
-193 190 0
194 -706 -8 0
-194 706 0
-194 8 0
195 -194 -730 0
-195 194 0
-195 730 0
196 -787 -193 0
-196 787 0
-196 193 0
197 -21 -12 0
-197 21 0
-197 12 0
198 -197 -15 0
-198 197 0
-198 15 0
199 -788 -196 0
-199 788 0
-199 196 0
200 -15 -3 0
-200 15 0
-200 3 0
201 -200 -756 0
-201 200 0
-201 756 0
202 -789 -199 0
-202 789 0
-202 199 0
203 -19 -739 0
-203 19 0
-203 739 0
204 -203 -734 0
-204 203 0
-204 734 0
205 -790 -202 0
-205 790 0
-205 202 0
206 -21 -17 0
-206 21 0
-206 17 0
207 -206 -38 0
-207 206 0
-207 38 0
208 -791 -205 0
-208 791 0
-208 205 0
209 -733 -11 0
-209 733 0
-209 11 0
210 -209 -792 0
-210 209 0
-210 792 0
211 -793 -208 0
-211 793 0
-211 208 0
212 -794 -10 0
-212 794 0
-212 10 0
213 -212 -31 0
-213 212 0
-213 31 0
214 -795 -211 0
-214 795 0
-214 211 0
215 -715 -1 0
-215 715 0
-215 1 0
216 -215 -796 0
-216 215 0
-216 796 0
217 -797 -214 0
-217 797 0
-217 214 0
218 -44 -737 0
-218 44 0
-218 737 0
219 -218 -39 0
-219 218 0
-219 39 0
220 -798 -217 0
-220 798 0
-220 217 0
221 -715 -739 0
-221 715 0
-221 739 0
222 -221 -706 0
-222 221 0
-222 706 0
223 -799 -220 0
-223 799 0
-223 220 0
224 -34 -717 0
-224 34 0
-224 717 0
225 -224 -785 0
-225 224 0
-225 785 0
226 -800 -223 0
-226 800 0
-226 223 0
227 -794 -715 0
-227 794 0
-227 715 0
228 -227 -19 0
-228 227 0
-228 19 0
229 -801 -226 0
-229 801 0
-229 226 0
230 -749 -8 0
-230 749 0
-230 8 0
231 -230 -756 0
-231 230 0
-231 756 0
232 -802 -229 0
-232 802 0
-232 229 0
233 -40 -716 0
-233 40 0
-233 716 0
234 -233 -722 0
-234 233 0
-234 722 0
235 -803 -232 0
-235 803 0
-235 232 0
236 -30 -733 0
-236 30 0
-236 733 0
237 -236 -794 0
-237 236 0
-237 794 0
238 -804 -235 0
-238 804 0
-238 235 0
239 -759 -28 0
-239 759 0
-239 28 0
240 -239 -722 0
-240 239 0
-240 722 0
241 -805 -238 0
-241 805 0
-241 238 0
242 -18 -740 0
-242 18 0
-242 740 0
243 -242 -756 0
-243 242 0
-243 756 0
244 -806 -241 0
-244 806 0
-244 241 0
245 -785 -777 0
-245 785 0
-245 777 0
246 -245 -9 0
-246 245 0
-246 9 0
247 -807 -244 0
-247 807 0
-247 244 0
248 -794 -33 0
-248 794 0
-248 33 0
249 -248 -31 0
-249 248 0
-249 31 0
250 -808 -247 0
-250 808 0
-250 247 0
251 -733 -2 0
-251 733 0
-251 2 0
252 -251 -761 0
-252 251 0
-252 761 0
253 -809 -250 0
-253 809 0
-253 250 0
254 -772 -810 0
-254 772 0
-254 810 0
255 -254 -768 0
-255 254 0
-255 768 0
256 -811 -253 0
-256 811 0
-256 253 0
257 -19 -792 0
-257 19 0
-257 792 0
258 -257 -704 0
-258 257 0
-258 704 0
259 -812 -256 0
-259 812 0
-259 256 0
260 -739 -1 0
-260 739 0
-260 1 0
261 -260 -730 0
-261 260 0
-261 730 0
262 -813 -259 0
-262 813 0
-262 259 0
263 -733 -7 0
-263 733 0
-263 7 0
264 -263 -814 0
-264 263 0
-264 814 0
265 -815 -262 0
-265 815 0
-265 262 0
266 -32 -700 0
-266 32 0
-266 700 0
267 -266 -730 0
-267 266 0
-267 730 0
268 -816 -265 0
-268 816 0
-268 265 0
269 -23 -817 0
-269 23 0
-269 817 0
270 -269 -720 0
-270 269 0
-270 720 0
271 -818 -268 0
-271 818 0
-271 268 0
272 -763 -727 0
-272 763 0
-272 727 0
273 -272 -6 0
-273 272 0
-273 6 0
274 -819 -271 0
-274 819 0
-274 271 0
275 -48 -43 0
-275 48 0
-275 43 0
276 -275 -17 0
-276 275 0
-276 17 0
277 -820 -274 0
-277 820 0
-277 274 0
278 -30 -2 0
-278 30 0
-278 2 0
279 -278 -756 0
-279 278 0
-279 756 0
280 -821 -277 0
-280 821 0
-280 277 0
281 -763 -5 0
-281 763 0
-281 5 0
282 -281 -12 0
-282 281 0
-282 12 0
283 -822 -280 0
-283 822 0
-283 280 0
284 -823 -719 0
-284 823 0
-284 719 0
285 -284 -824 0
-285 284 0
-285 824 0
286 -825 -283 0
-286 825 0
-286 283 0
287 -772 -28 0
-287 772 0
-287 28 0
288 -287 -37 0
-288 287 0
-288 37 0
289 -826 -286 0
-289 826 0
-289 286 0
290 -45 -13 0
-290 45 0
-290 13 0
291 -290 -740 0
-291 290 0
-291 740 0
292 -827 -289 0
-292 827 0
-292 289 0
293 -25 -701 0
-293 25 0
-293 701 0
294 -293 -785 0
-294 293 0
-294 785 0
295 -828 -292 0
-295 828 0
-295 292 0
296 -43 -23 0
-296 43 0
-296 23 0
297 -296 -730 0
-297 296 0
-297 730 0
298 -829 -295 0
-298 829 0
-298 295 0
299 -221 -33 0
-299 221 0
-299 33 0
300 -830 -298 0
-300 830 0
-300 298 0
301 -24 -10 0
-301 24 0
-301 10 0
302 -301 -796 0
-302 301 0
-302 796 0
303 -831 -300 0
-303 831 0
-303 300 0
304 -47 -810 0
-304 47 0
-304 810 0
305 -304 -704 0
-305 304 0
-305 704 0
306 -832 -303 0
-306 832 0
-306 303 0
307 -773 -33 0
-307 773 0
-307 33 0
308 -307 -810 0
-308 307 0
-308 810 0
309 -833 -306 0
-309 833 0
-309 306 0
310 -733 -23 0
-310 733 0
-310 23 0
311 -310 -706 0
-311 310 0
-311 706 0
312 -834 -309 0
-312 834 0
-312 309 0
313 -772 -717 0
-313 772 0
-313 717 0
314 -313 -756 0
-314 313 0
-314 756 0
315 -835 -312 0
-315 835 0
-315 312 0
316 -814 -716 0
-316 814 0
-316 716 0
317 -316 -3 0
-317 316 0
-317 3 0
318 -836 -315 0
-318 836 0
-318 315 0
319 -773 -34 0
-319 773 0
-319 34 0
320 -319 -704 0
-320 319 0
-320 704 0
321 -837 -318 0
-321 837 0
-321 318 0
322 -45 -753 0
-322 45 0
-322 753 0
323 -322 -838 0
-323 322 0
-323 838 0
324 -839 -321 0
-324 839 0
-324 321 0
325 -746 -7 0
-325 746 0
-325 7 0
326 -325 -25 0
-326 325 0
-326 25 0
327 -840 -324 0
-327 840 0
-327 324 0
328 -4 -3 0
-328 4 0
-328 3 0
329 -328 -761 0
-329 328 0
-329 761 0
330 -841 -327 0
-330 841 0
-330 327 0
331 -26 -18 0
-331 26 0
-331 18 0
332 -331 -46 0
-332 331 0
-332 46 0
333 -842 -330 0
-333 842 0
-333 330 0
334 -823 -35 0
-334 823 0
-334 35 0
335 -334 -21 0
-335 334 0
-335 21 0
336 -843 -333 0
-336 843 0
-336 333 0
337 -40 -749 0
-337 40 0
-337 749 0
338 -337 -758 0
-338 337 0
-338 758 0
339 -844 -336 0
-339 844 0
-339 336 0
340 -48 -30 0
-340 48 0
-340 30 0
341 -340 -796 0
-341 340 0
-341 796 0
342 -845 -339 0
-342 845 0
-342 339 0
343 -713 -4 0
-343 713 0
-343 4 0
344 -343 -38 0
-344 343 0
-344 38 0
345 -846 -342 0
-345 846 0
-345 342 0
346 -773 -792 0
-346 773 0
-346 792 0
347 -346 -33 0
-347 346 0
-347 33 0
348 -847 -345 0
-348 847 0
-348 345 0
349 -26 -780 0
-349 26 0
-349 780 0
350 -349 -46 0
-350 349 0
-350 46 0
351 -848 -348 0
-351 848 0
-351 348 0
352 -734 -704 0
-352 734 0
-352 704 0
353 -352 -824 0
-353 352 0
-353 824 0
354 -849 -351 0
-354 849 0
-354 351 0
355 -227 -707 0
-355 227 0
-355 707 0
356 -850 -354 0
-356 850 0
-356 354 0
357 -715 -713 0
-357 715 0
-357 713 0
358 -357 -8 0
-358 357 0
-358 8 0
359 -851 -356 0
-359 851 0
-359 356 0
360 -43 -814 0
-360 43 0
-360 814 0
361 -360 -50 0
-361 360 0
-361 50 0
362 -852 -359 0
-362 852 0
-362 359 0
363 -768 -781 0
-363 768 0
-363 781 0
364 -363 -49 0
-364 363 0
-364 49 0
365 -853 -362 0
-365 853 0
-365 362 0
366 -817 -716 0
-366 817 0
-366 716 0
367 -366 -22 0
-367 366 0
-367 22 0
368 -854 -365 0
-368 854 0
-368 365 0
369 -12 -700 0
-369 12 0
-369 700 0
370 -369 -704 0
-370 369 0
-370 704 0
371 -855 -368 0
-371 855 0
-371 368 0
372 -777 -25 0
-372 777 0
-372 25 0
373 -372 -761 0
-373 372 0
-373 761 0
374 -856 -371 0
-374 856 0
-374 371 0
375 -701 -2 0
-375 701 0
-375 2 0
376 -375 -711 0
-376 375 0
-376 711 0
377 -857 -374 0
-377 857 0
-377 374 0
378 -35 -796 0
-378 35 0
-378 796 0
379 -378 -3 0
-379 378 0
-379 3 0
380 -858 -377 0
-380 858 0
-380 377 0
381 -759 -701 0
-381 759 0
-381 701 0
382 -381 -21 0
-382 381 0
-382 21 0
383 -859 -380 0
-383 859 0
-383 380 0
384 -773 -744 0
-384 773 0
-384 744 0
385 -384 -761 0
-385 384 0
-385 761 0
386 -860 -383 0
-386 860 0
-386 383 0
387 -41 -28 0
-387 41 0
-387 28 0
388 -387 -824 0
-388 387 0
-388 824 0
389 -861 -386 0
-389 861 0
-389 386 0
390 -17 -740 0
-390 17 0
-390 740 0
391 -390 -761 0
-391 390 0
-391 761 0
392 -862 -389 0
-392 862 0
-392 389 0
393 -814 -781 0
-393 814 0
-393 781 0
394 -393 -17 0
-394 393 0
-394 17 0
395 -863 -392 0
-395 863 0
-395 392 0
396 -14 -13 0
-396 14 0
-396 13 0
397 -396 -796 0
-397 396 0
-397 796 0
398 -864 -395 0
-398 864 0
-398 395 0
399 -278 -5 0
-399 278 0
-399 5 0
400 -865 -398 0
-400 865 0
-400 398 0
401 -772 -42 0
-401 772 0
-401 42 0
402 -401 -734 0
-402 401 0
-402 734 0
403 -866 -400 0
-403 866 0
-403 400 0
404 -40 -29 0
-404 40 0
-404 29 0
405 -404 -31 0
-405 404 0
-405 31 0
406 -867 -403 0
-406 867 0
-406 403 0
407 -706 -739 0
-407 706 0
-407 739 0
408 -407 -756 0
-408 407 0
-408 756 0
409 -868 -406 0
-409 868 0
-409 406 0
410 -13 -707 0
-410 13 0
-410 707 0
411 -410 -810 0
-411 410 0
-411 810 0
412 -869 -409 0
-412 869 0
-412 409 0
413 -772 -21 0
-413 772 0
-413 21 0
414 -413 -838 0
-414 413 0
-414 838 0
415 -870 -412 0
-415 870 0
-415 412 0
416 -43 -15 0
-416 43 0
-416 15 0
417 -416 -9 0
-417 416 0
-417 9 0
418 -871 -415 0
-418 871 0
-418 415 0
419 -823 -36 0
-419 823 0
-419 36 0
420 -419 -46 0
-420 419 0
-420 46 0
421 -872 -418 0
-421 872 0
-421 418 0
422 -758 -742 0
-422 758 0
-422 742 0
423 -422 -14 0
-423 422 0
-423 14 0
424 -873 -421 0
-424 873 0
-424 421 0
425 -777 -1 0
-425 777 0
-425 1 0
426 -425 -17 0
-426 425 0
-426 17 0
427 -874 -424 0
-427 874 0
-427 424 0
428 -817 -7 0
-428 817 0
-428 7 0
429 -428 -5 0
-429 428 0
-429 5 0
430 -875 -427 0
-430 875 0
-430 427 0
431 -707 -817 0
-431 707 0
-431 817 0
432 -431 -761 0
-432 431 0
-432 761 0
433 -876 -430 0
-433 876 0
-433 430 0
434 -777 -22 0
-434 777 0
-434 22 0
435 -434 -38 0
-435 434 0
-435 38 0
436 -877 -433 0
-436 877 0
-436 433 0
437 -732 -30 0
-437 732 0
-437 30 0
438 -437 -734 0
-438 437 0
-438 734 0
439 -878 -436 0
-439 878 0
-439 436 0
440 -284 -732 0
-440 284 0
-440 732 0
441 -879 -439 0
-441 879 0
-441 439 0
442 -777 -772 0
-442 777 0
-442 772 0
443 -442 -713 0
-443 442 0
-443 713 0
444 -880 -441 0
-444 880 0
-444 441 0
445 -13 -817 0
-445 13 0
-445 817 0
446 -445 -20 0
-446 445 0
-446 20 0
447 -881 -444 0
-447 881 0
-447 444 0
448 -746 -759 0
-448 746 0
-448 759 0
449 -448 -792 0
-449 448 0
-449 792 0
450 -882 -447 0
-450 882 0
-450 447 0
451 -39 -730 0
-451 39 0
-451 730 0
452 -451 -31 0
-452 451 0
-452 31 0
453 -883 -450 0
-453 883 0
-453 450 0
454 -742 -737 0
-454 742 0
-454 737 0
455 -454 -5 0
-455 454 0
-455 5 0
456 -884 -453 0
-456 884 0
-456 453 0
457 -773 -23 0
-457 773 0
-457 23 0
458 -457 -25 0
-458 457 0
-458 25 0
459 -885 -456 0
-459 885 0
-459 456 0
460 -823 -717 0
-460 823 0
-460 717 0
461 -460 -768 0
-461 460 0
-461 768 0
462 -886 -459 0
-462 886 0
-462 459 0
463 -24 -16 0
-463 24 0
-463 16 0
464 -463 -737 0
-464 463 0
-464 737 0
465 -887 -462 0
-465 887 0
-465 462 0
466 -28 -13 0
-466 28 0
-466 13 0
467 -466 -794 0
-467 466 0
-467 794 0
468 -888 -465 0
-468 888 0
-468 465 0
469 -30 -19 0
-469 30 0
-469 19 0
470 -469 -26 0
-470 469 0
-470 26 0
471 -889 -468 0
-471 889 0
-471 468 0
472 -45 -16 0
-472 45 0
-472 16 0
473 -472 -707 0
-473 472 0
-473 707 0
474 -890 -471 0
-474 890 0
-474 471 0
475 -810 -730 0
-475 810 0
-475 730 0
476 -475 -768 0
-476 475 0
-476 768 0
477 -891 -474 0
-477 891 0
-477 474 0
478 -715 -4 0
-478 715 0
-478 4 0
479 -478 -5 0
-479 478 0
-479 5 0
480 -892 -477 0
-480 892 0
-480 477 0
481 -13 -2 0
-481 13 0
-481 2 0
482 -481 -713 0
-482 481 0
-482 713 0
483 -893 -480 0
-483 893 0
-483 480 0
484 -742 -16 0
-484 742 0
-484 16 0
485 -484 -3 0
-485 484 0
-485 3 0
486 -894 -483 0
-486 894 0
-486 483 0
487 -768 -26 0
-487 768 0
-487 26 0
488 -487 -49 0
-488 487 0
-488 49 0
489 -895 -486 0
-489 895 0
-489 486 0
490 -759 -12 0
-490 759 0
-490 12 0
491 -490 -15 0
-491 490 0
-491 15 0
492 -896 -489 0
-492 896 0
-492 489 0
493 -43 -4 0
-493 43 0
-493 4 0
494 -493 -706 0
-494 493 0
-494 706 0
495 -897 -492 0
-495 897 0
-495 492 0
496 -742 -5 0
-496 742 0
-496 5 0
497 -496 -707 0
-497 496 0
-497 707 0
498 -898 -495 0
-498 898 0
-498 495 0
499 -39 -716 0
-499 39 0
-499 716 0
500 -499 -12 0
-500 499 0
-500 12 0
501 -899 -498 0
-501 899 0
-501 498 0
502 -32 -838 0
-502 32 0
-502 838 0
503 -502 -768 0
-503 502 0
-503 768 0
504 -900 -501 0
-504 900 0
-504 501 0
505 -777 -716 0
-505 777 0
-505 716 0
506 -505 -42 0
-506 505 0
-506 42 0
507 -901 -504 0
-507 901 0
-507 504 0
508 -749 -700 0
-508 749 0
-508 700 0
509 -508 -715 0
-509 508 0
-509 715 0
510 -902 -507 0
-510 902 0
-510 507 0
511 -759 -763 0
-511 759 0
-511 763 0
512 -511 -792 0
-512 511 0
-512 792 0
513 -903 -510 0
-513 903 0
-513 510 0
514 -759 -17 0
-514 759 0
-514 17 0
515 -514 -768 0
-515 514 0
-515 768 0
516 -904 -513 0
-516 904 0
-516 513 0
517 -905 -16 0
-517 905 0
-517 16 0
518 -517 -737 0
-518 517 0
-518 737 0
519 -906 -516 0
-519 906 0
-519 516 0
520 -711 -13 0
-520 711 0
-520 13 0
521 -520 -824 0
-521 520 0
-521 824 0
522 -907 -519 0
-522 907 0
-522 519 0
523 -759 -32 0
-523 759 0
-523 32 0
524 -523 -48 0
-524 523 0
-524 48 0
525 -908 -522 0
-525 908 0
-525 522 0
526 -796 -707 0
-526 796 0
-526 707 0
527 -526 -730 0
-527 526 0
-527 730 0
528 -909 -525 0
-528 909 0
-528 525 0
529 -18 -700 0
-529 18 0
-529 700 0
530 -529 -41 0
-530 529 0
-530 41 0
531 -910 -528 0
-531 910 0
-531 528 0
532 -34 -5 0
-532 34 0
-532 5 0
533 -532 -3 0
-533 532 0
-533 3 0
534 -911 -531 0
-534 911 0
-534 531 0
535 -45 -40 0
-535 45 0
-535 40 0
536 -535 -5 0
-536 535 0
-536 5 0
537 -912 -534 0
-537 912 0
-537 534 0
538 -753 -2 0
-538 753 0
-538 2 0
539 -538 -732 0
-539 538 0
-539 732 0
540 -913 -537 0
-540 913 0
-540 537 0
541 -753 -740 0
-541 753 0
-541 740 0
542 -541 -3 0
-542 541 0
-542 3 0
543 -914 -540 0
-543 914 0
-543 540 0
544 -45 -720 0
-544 45 0
-544 720 0
545 -544 -756 0
-545 544 0
-545 756 0
546 -915 -543 0
-546 915 0
-546 543 0
547 -780 -12 0
-547 780 0
-547 12 0
548 -547 -9 0
-548 547 0
-548 9 0
549 -916 -546 0
-549 916 0
-549 546 0
550 -33 -14 0
-550 33 0
-550 14 0
551 -550 -722 0
-551 550 0
-551 722 0
552 -917 -549 0
-552 917 0
-552 549 0
553 -34 -31 0
-553 34 0
-553 31 0
554 -553 -727 0
-554 553 0
-554 727 0
555 -918 -552 0
-555 918 0
-555 552 0
556 -753 -817 0
-556 753 0
-556 817 0
557 -556 -9 0
-557 556 0
-557 9 0
558 -919 -555 0
-558 919 0
-558 555 0
559 -50 -817 0
-559 50 0
-559 817 0
560 -559 -810 0
-560 559 0
-560 810 0
561 -920 -558 0
-561 920 0
-561 558 0
562 -737 -717 0
-562 737 0
-562 717 0
563 -562 -734 0
-563 562 0
-563 734 0
564 -921 -561 0
-564 921 0
-564 561 0
565 -922 -823 0
-565 922 0
-565 823 0
566 -565 -41 0
-566 565 0
-566 41 0
567 -923 -564 0
-567 923 0
-567 564 0
568 -36 -719 0
-568 36 0
-568 719 0
569 -568 -701 0
-569 568 0
-569 701 0
570 -924 -567 0
-570 924 0
-570 567 0
571 -43 -742 0
-571 43 0
-571 742 0
572 -571 -719 0
-572 571 0
-572 719 0
573 -925 -570 0
-573 925 0
-573 570 0
574 -45 -749 0
-574 45 0
-574 749 0
575 -574 -711 0
-575 574 0
-575 711 0
576 -926 -573 0
-576 926 0
-576 573 0
577 -722 -717 0
-577 722 0
-577 717 0
578 -577 -730 0
-578 577 0
-578 730 0
579 -927 -576 0
-579 927 0
-579 576 0
580 -759 -7 0
-580 759 0
-580 7 0
581 -580 -14 0
-581 580 0
-581 14 0
582 -928 -579 0
-582 928 0
-582 579 0
583 -753 -22 0
-583 753 0
-583 22 0
584 -583 -734 0
-584 583 0
-584 734 0
585 -929 -582 0
-585 929 0
-585 582 0
586 -733 -16 0
-586 733 0
-586 16 0
587 -586 -29 0
-587 586 0
-587 29 0
588 -930 -585 0
-588 930 0
-588 585 0
589 -50 -32 0
-589 50 0
-589 32 0
590 -589 -734 0
-590 589 0
-590 734 0
591 -931 -588 0
-591 931 0
-591 588 0
592 -817 -5 0
-592 817 0
-592 5 0
593 -592 -717 0
-593 592 0
-593 717 0
594 -932 -591 0
-594 932 0
-594 591 0
595 -48 -4 0
-595 48 0
-595 4 0
596 -595 -17 0
-596 595 0
-596 17 0
597 -933 -594 0
-597 933 0
-597 594 0
598 -717 -19 0
-598 717 0
-598 19 0
599 -598 -26 0
-599 598 0
-599 26 0
600 -934 -597 0
-600 934 0
-600 597 0
601 -763 -700 0
-601 763 0
-601 700 0
602 -601 -40 0
-602 601 0
-602 40 0
603 -935 -600 0
-603 935 0
-603 600 0
604 -21 -10 0
-604 21 0
-604 10 0
605 -604 -15 0
-605 604 0
-605 15 0
606 -936 -603 0
-606 936 0
-606 603 0
607 -763 -737 0
-607 763 0
-607 737 0
608 -607 -47 0
-608 607 0
-608 47 0
609 -937 -606 0
-609 937 0
-609 606 0
610 -23 -5 0
-610 23 0
-610 5 0
611 -610 -810 0
-611 610 0
-611 810 0
612 -938 -609 0
-612 938 0
-612 609 0
613 -38 -22 0
-613 38 0
-613 22 0
614 -613 -49 0
-614 613 0
-614 49 0
615 -939 -612 0
-615 939 0
-615 612 0
616 -794 -781 0
-616 794 0
-616 781 0
617 -616 -17 0
-617 616 0
-617 17 0
618 -940 -615 0
-618 940 0
-618 615 0
619 -713 -817 0
-619 713 0
-619 817 0
620 -619 -773 0
-620 619 0
-620 773 0
621 -941 -618 0
-621 941 0
-621 618 0
622 -794 -772 0
-622 794 0
-622 772 0
623 -622 -734 0
-623 622 0
-623 734 0
624 -942 -621 0
-624 942 0
-624 621 0
625 -794 -2 0
-625 794 0
-625 2 0
626 -625 -9 0
-626 625 0
-626 9 0
627 -943 -624 0
-627 943 0
-627 624 0
628 -722 -838 0
-628 722 0
-628 838 0
629 -628 -41 0
-629 628 0
-629 41 0
630 -944 -627 0
-630 944 0
-630 627 0
631 -50 -742 0
-631 50 0
-631 742 0
632 -631 -19 0
-632 631 0
-632 19 0
633 -945 -630 0
-633 945 0
-633 630 0
634 -733 -707 0
-634 733 0
-634 707 0
635 -634 -756 0
-635 634 0
-635 756 0
636 -946 -633 0
-636 946 0
-636 633 0
637 -11 -10 0
-637 11 0
-637 10 0
638 -637 -744 0
-638 637 0
-638 744 0
639 -947 -636 0
-639 947 0
-639 636 0
640 -50 -749 0
-640 50 0
-640 749 0
641 -640 -17 0
-641 640 0
-641 17 0
642 -948 -639 0
-642 948 0
-642 639 0
643 -39 -1 0
-643 39 0
-643 1 0
644 -643 -27 0
-644 643 0
-644 27 0
645 -949 -642 0
-645 949 0
-645 642 0
646 -781 -739 0
-646 781 0
-646 739 0
647 -646 -737 0
-647 646 0
-647 737 0
648 -950 -645 0
-648 950 0
-648 645 0
649 -758 -16 0
-649 758 0
-649 16 0
650 -649 -740 0
-650 649 0
-650 740 0
651 -951 -648 0
-651 951 0
-651 648 0
652 -742 -753 0
-652 742 0
-652 753 0
653 -652 -922 0
-653 652 0
-653 922 0
654 -952 -651 0
-654 952 0
-654 651 0
655 -37 -35 0
-655 37 0
-655 35 0
656 -655 -3 0
-656 655 0
-656 3 0
657 -953 -654 0
-657 953 0
-657 654 0
658 -34 -740 0
-658 34 0
-658 740 0
659 -658 -49 0
-659 658 0
-659 49 0
660 -954 -657 0
-660 954 0
-660 657 0
661 -24 -700 0
-661 24 0
-661 700 0
662 -661 -47 0
-662 661 0
-662 47 0
663 -955 -660 0
-663 955 0
-663 660 0
664 -733 -21 0
-664 733 0
-664 21 0
665 -664 -785 0
-665 664 0
-665 785 0
666 -956 -663 0
-666 956 0
-666 663 0
667 -47 -12 0
-667 47 0
-667 12 0
668 -667 -8 0
-668 667 0
-668 8 0
669 -957 -666 0
-669 957 0
-669 666 0
670 -722 -23 0
-670 722 0
-670 23 0
671 -670 -720 0
-671 670 0
-671 720 0
672 -958 -669 0
-672 958 0
-672 669 0
673 -28 -717 0
-673 28 0
-673 717 0
674 -673 -20 0
-674 673 0
-674 20 0
675 -959 -672 0
-675 959 0
-675 672 0
676 -45 -722 0
-676 45 0
-676 722 0
677 -676 -761 0
-677 676 0
-677 761 0
678 -960 -675 0
-678 960 0
-678 675 0
679 -45 -10 0
-679 45 0
-679 10 0
680 -679 -722 0
-680 679 0
-680 722 0
681 -961 -678 0
-681 961 0
-681 678 0
682 -15 -716 0
-682 15 0
-682 716 0
683 -682 -768 0
-683 682 0
-683 768 0
684 -962 -681 0
-684 962 0
-684 681 0
685 -772 -7 0
-685 772 0
-685 7 0
686 -685 -37 0
-686 685 0
-686 37 0
687 -963 -684 0
-687 963 0
-687 684 0
688 -746 -22 0
-688 746 0
-688 22 0
689 -688 -20 0
-689 688 0
-689 20 0
690 -964 -687 0
-690 964 0
-690 687 0
691 -742 -14 0
-691 742 0
-691 14 0
692 -691 -19 0
-692 691 0
-692 19 0
693 -965 -690 0
-693 965 0
-693 690 0
694 -739 -701 0
-694 739 0
-694 701 0
695 -694 -11 0
-695 694 0
-695 11 0
696 -966 -693 0
-696 966 0
-696 693 0
697 -737 -7 0
-697 737 0
-697 7 0
698 -697 -810 0
-698 697 0
-698 810 0
699 -967 -696 0
-699 967 0
-699 696 0
-700 -1 0
700 1 0
-701 -4 0
701 4 0
-702 -54 0
702 54 0
-703 -52 0
703 52 0
-704 -9 0
704 9 0
-705 -57 0
705 57 0
-706 -11 0
706 11 0
-707 -12 0
707 12 0
-708 -60 0
708 60 0
-709 -13 0
709 13 0
-710 -63 0
710 63 0
-711 -17 0
711 17 0
-712 -66 0
712 66 0
-713 -18 0
713 18 0
-714 -69 0
714 69 0
-715 -21 0
715 21 0
-716 -2 0
716 2 0
-717 -22 0
717 22 0
-718 -72 0
718 72 0
-719 -24 0
719 24 0
-720 -25 0
720 25 0
-721 -75 0
721 75 0
-722 -26 0
722 26 0
-723 -78 0
723 78 0
-724 -81 0
724 81 0
-725 -84 0
725 84 0
-726 -87 0
726 87 0
-727 -27 0
727 27 0
-728 -90 0
728 90 0
-729 -93 0
729 93 0
-730 -3 0
730 3 0
-731 -96 0
731 96 0
-732 -33 0
732 33 0
-733 -28 0
733 28 0
-734 -34 0
734 34 0
-735 -99 0
735 99 0
-736 -102 0
736 102 0
-737 -29 0
737 29 0
-738 -105 0
738 105 0
-739 -7 0
739 7 0
-740 -5 0
740 5 0
-741 -108 0
741 108 0
-742 -37 0
742 37 0
-743 -111 0
743 111 0
-744 -8 0
744 8 0
-745 -114 0
745 114 0
-746 -40 0
746 40 0
-747 -117 0
747 117 0
-748 -120 0
748 120 0
-749 -23 0
749 23 0
-750 -123 0
750 123 0
-751 -126 0
751 126 0
-752 -129 0
752 129 0
-753 -36 0
753 36 0
-754 -132 0
754 132 0
-755 -135 0
755 135 0
-756 -41 0
756 41 0
-757 -138 0
757 138 0
-758 -44 0
758 44 0
-759 -35 0
759 35 0
-760 -141 0
760 141 0
-761 -6 0
761 6 0
-762 -144 0
762 144 0
-763 -32 0
763 32 0
-764 -147 0
764 147 0
-765 -150 0
765 150 0
-766 -153 0
766 153 0
-767 -156 0
767 156 0
-768 -31 0
768 31 0
-769 -159 0
769 159 0
-770 -162 0
770 162 0
-771 -165 0
771 165 0
-772 -43 0
772 43 0
-773 -42 0
773 42 0
-774 -168 0
774 168 0
-775 -171 0
775 171 0
-776 -174 0
776 174 0
-777 -45 0
777 45 0
-778 -177 0
778 177 0
-779 -180 0
779 180 0
-780 -19 0
780 19 0
-781 -16 0
781 16 0
-782 -183 0
782 183 0
-783 -186 0
783 186 0
-784 -189 0
784 189 0
-785 -46 0
785 46 0
-786 -192 0
786 192 0
-787 -195 0
787 195 0
-788 -198 0
788 198 0
-789 -201 0
789 201 0
-790 -204 0
790 204 0
-791 -207 0
791 207 0
-792 -14 0
792 14 0
-793 -210 0
793 210 0
-794 -47 0
794 47 0
-795 -213 0
795 213 0
-796 -15 0
796 15 0
-797 -216 0
797 216 0
-798 -219 0
798 219 0
-799 -222 0
799 222 0
-800 -225 0
800 225 0
-801 -228 0
801 228 0
-802 -231 0
802 231 0
-803 -234 0
803 234 0
-804 -237 0
804 237 0
-805 -240 0
805 240 0
-806 -243 0
806 243 0
-807 -246 0
807 246 0
-808 -249 0
808 249 0
-809 -252 0
809 252 0
-810 -38 0
810 38 0
-811 -255 0
811 255 0
-812 -258 0
812 258 0
-813 -261 0
813 261 0
-814 -39 0
814 39 0
-815 -264 0
815 264 0
-816 -267 0
816 267 0
-817 -10 0
817 10 0
-818 -270 0
818 270 0
-819 -273 0
819 273 0
-820 -276 0
820 276 0
-821 -279 0
821 279 0
-822 -282 0
822 282 0
-823 -48 0
823 48 0
-824 -49 0
824 49 0
-825 -285 0
825 285 0
-826 -288 0
826 288 0
-827 -291 0
827 291 0
-828 -294 0
828 294 0
-829 -297 0
829 297 0
-830 -299 0
830 299 0
-831 -302 0
831 302 0
-832 -305 0
832 305 0
-833 -308 0
833 308 0
-834 -311 0
834 311 0
-835 -314 0
835 314 0
-836 -317 0
836 317 0
-837 -320 0
837 320 0
-838 -20 0
838 20 0
-839 -323 0
839 323 0
-840 -326 0
840 326 0
-841 -329 0
841 329 0
-842 -332 0
842 332 0
-843 -335 0
843 335 0
-844 -338 0
844 338 0
-845 -341 0
845 341 0
-846 -344 0
846 344 0
-847 -347 0
847 347 0
-848 -350 0
848 350 0
-849 -353 0
849 353 0
-850 -355 0
850 355 0
-851 -358 0
851 358 0
-852 -361 0
852 361 0
-853 -364 0
853 364 0
-854 -367 0
854 367 0
-855 -370 0
855 370 0
-856 -373 0
856 373 0
-857 -376 0
857 376 0
-858 -379 0
858 379 0
-859 -382 0
859 382 0
-860 -385 0
860 385 0
-861 -388 0
861 388 0
-862 -391 0
862 391 0
-863 -394 0
863 394 0
-864 -397 0
864 397 0
-865 -399 0
865 399 0
-866 -402 0
866 402 0
-867 -405 0
867 405 0
-868 -408 0
868 408 0
-869 -411 0
869 411 0
-870 -414 0
870 414 0
-871 -417 0
871 417 0
-872 -420 0
872 420 0
-873 -423 0
873 423 0
-874 -426 0
874 426 0
-875 -429 0
875 429 0
-876 -432 0
876 432 0
-877 -435 0
877 435 0
-878 -438 0
878 438 0
-879 -440 0
879 440 0
-880 -443 0
880 443 0
-881 -446 0
881 446 0
-882 -449 0
882 449 0
-883 -452 0
883 452 0
-884 -455 0
884 455 0
-885 -458 0
885 458 0
-886 -461 0
886 461 0
-887 -464 0
887 464 0
-888 -467 0
888 467 0
-889 -470 0
889 470 0
-890 -473 0
890 473 0
-891 -476 0
891 476 0
-892 -479 0
892 479 0
-893 -482 0
893 482 0
-894 -485 0
894 485 0
-895 -488 0
895 488 0
-896 -491 0
896 491 0
-897 -494 0
897 494 0
-898 -497 0
898 497 0
-899 -500 0
899 500 0
-900 -503 0
900 503 0
-901 -506 0
901 506 0
-902 -509 0
902 509 0
-903 -512 0
903 512 0
-904 -515 0
904 515 0
-905 -30 0
905 30 0
-906 -518 0
906 518 0
-907 -521 0
907 521 0
-908 -524 0
908 524 0
-909 -527 0
909 527 0
-910 -530 0
910 530 0
-911 -533 0
911 533 0
-912 -536 0
912 536 0
-913 -539 0
913 539 0
-914 -542 0
914 542 0
-915 -545 0
915 545 0
-916 -548 0
916 548 0
-917 -551 0
917 551 0
-918 -554 0
918 554 0
-919 -557 0
919 557 0
-920 -560 0
920 560 0
-921 -563 0
921 563 0
-922 -50 0
922 50 0
-923 -566 0
923 566 0
-924 -569 0
924 569 0
-925 -572 0
925 572 0
-926 -575 0
926 575 0
-927 -578 0
927 578 0
-928 -581 0
928 581 0
-929 -584 0
929 584 0
-930 -587 0
930 587 0
-931 -590 0
931 590 0
-932 -593 0
932 593 0
-933 -596 0
933 596 0
-934 -599 0
934 599 0
-935 -602 0
935 602 0
-936 -605 0
936 605 0
-937 -608 0
937 608 0
-938 -611 0
938 611 0
-939 -614 0
939 614 0
-940 -617 0
940 617 0
-941 -620 0
941 620 0
-942 -623 0
942 623 0
-943 -626 0
943 626 0
-944 -629 0
944 629 0
-945 -632 0
945 632 0
-946 -635 0
946 635 0
-947 -638 0
947 638 0
-948 -641 0
948 641 0
-949 -644 0
949 644 0
-950 -647 0
950 647 0
-951 -650 0
951 650 0
-952 -653 0
952 653 0
-953 -656 0
953 656 0
-954 -659 0
954 659 0
-955 -662 0
955 662 0
-956 -665 0
956 665 0
-957 -668 0
957 668 0
-958 -671 0
958 671 0
-959 -674 0
959 674 0
-960 -677 0
960 677 0
-961 -680 0
961 680 0
-962 -683 0
962 683 0
-963 -686 0
963 686 0
-964 -689 0
964 689 0
-965 -692 0
965 692 0
-966 -695 0
966 695 0
-967 -698 0
967 698 0
699 0
